C 
 1.0000000000000000
     6.2660000000000000    0.0000000000000000    0.0000000000000000
     0.7203431964649767    7.7415586724707204    0.0000000000000000
     0.5876759734010517    3.3581219057453895   14.1243957115495764
 C  
   3
Cartesian
  1.5000000000000000  3.2999999999999998  5.2000000000000002
  3.0000000000000000 10.0000000000000000 17.0000000000000000
 22.0000000000000000 18.0000000000000000 12.0000000000000000
