&CONTROL
   calculation      = 'bands'
   restart_mode     = 'from_scratch'
   outdir           = './'
   wfcdir 	        = './wf_collect'
   prefix           = 'pent'
   pseudo_dir       = '../pseudos'
/
&SYSTEM
   ecutwfc          = 90
   ntyp             = 2
   nat              = 72
   ibrav            = 0 !crystal axes provided
   nbnd             = 132
   occupations      = 'fixed'
/
&ELECTRONS
   conv_thr         = 1d-10
   electron_maxstep = 1000 !iterations in an scf step
   diagonalization = 'david'
/
&IONS
/
&CELL
/

ATOMIC_SPECIES
C 12.011 C.upf
H 1.008 H.upf

CELL_PARAMETERS angstrom
     6.2660000000000000    0.0000000000000000    0.0000000000000000
     0.7203431964649767    7.7415586724707204    0.0000000000000000
     0.5876759734010517    3.3581219057453895   14.1243957115495764

ATOMIC_POSITIONS angstrom
   C     4.69876578    3.15681942    0.21514378
   C     2.87550578    7.93701042   13.90742778
   C     3.71922381    3.16836087    1.22324672
   C     3.85490481    7.92522387   12.89915872
   C     3.90535763    2.49227267    2.45186957
   C     3.66830063    8.60040567   11.67010757
   C     2.93490048    2.52061080    3.45396058
   C     4.63847548    8.57154380   10.66774058
   C     3.12276977    1.85672808    4.70969062
   C     4.44982077    9.23350708    9.41109262
   C     2.15681650    1.91364331    5.68364948
   C     5.41561950    9.17590031    8.43697948
   C     0.94159064    2.63499386    5.46428904
   C     6.63163764    8.45620386    8.65737404
   C     0.71601820    3.27932600    4.27485729
   C     6.85786720    7.81362500    9.84759029
   C     1.69524473    3.24976709    3.23017166
   C     5.87859373    7.84337909   10.89212266
   C     1.49608812    3.91297955    2.01923045
   C     6.07820212    7.18098655   12.10344145
   C     5.09831256    7.19409283   13.12353161
   C     2.47595956    3.89980583    0.99906061
   C     6.37225835   10.62469890   13.55009253
   C     1.20339135    0.47949890    0.57629453
   C     5.96793324    7.16586045    0.81580990
   C     1.60761024    3.93856545   13.31059890
   C     4.98388402    6.59757006    1.65829694
   C     2.59135102    4.50746806   12.46820794
   C     5.17414682    6.49562385    3.03697962
   C     2.40037182    4.61092285   11.08972262
   C     4.18721048    5.91009606    3.89399097
   C     3.38665548    5.19789506   10.23300797
   C     4.39878187    5.81584992    5.24704391
   C     3.17416187    5.29439192    8.88024391
   C     5.60936880    6.30389139    5.83071454
   C     1.96336580    4.80685439    8.29658454
   C     6.58630852    6.86339877    5.04482392
   C     0.98712752    4.24570677    9.08217792
   C     6.41141510    6.98306037    3.62804469
   C     1.16288910    4.12400737   10.49867669
   C     1.12193998    7.55028589    2.80835172
   C     6.45294698    3.55553089   11.31822972
   C     6.63337504    3.44825144   12.71729331
   C     0.94207004    7.65639044    1.40912931
   H     5.63356240    2.60480218    0.38212132
   H     1.94082940    8.48934518   13.74059532
   H     4.84053064    1.94165804    2.62081729
   H     2.73300364    9.15088204   11.50114329
   H     4.05429871    1.30019331    4.87427765
   H     3.51792171    9.78940631    9.24607365
   H     3.03764668    9.14372871    6.64046723
   H     4.53426168    1.94416971    7.47938123
   H     6.45366914    2.67757272    6.25849036
   H     1.11968014    8.41349772    7.86332036
   H     6.05119760    3.83452862    4.10673235
   H     1.52339060    7.26000762   10.01661135
   H     0.56193152    4.46662484    1.85386583
   H     7.01275852    6.62821684   12.26919683
   H     5.44013637   10.25331204   13.10358828
   H     2.13561437    0.85051804    1.02277428
   H     4.05093180    6.22697812    1.21263478
   H     3.52456680    4.87737712   12.91376378
   H     3.25943437    5.53496538    3.44457749
   H     4.31477337    5.57203338   10.68237949
   H     3.63802881    5.34951338    5.88279705
   H     3.93433381    5.76211838    8.24482705
   H     5.76333723    6.22463253    6.91331595
   H     1.80855823    4.88772353    7.21419995
   H     1.25764459    7.22906472    5.48296087
   H     6.31573159    3.88020072    8.64386887
   H     2.05235171    7.92368081    3.25591251
   H     5.52246071    3.18210581   10.87070151

K_POINTS crystal
   20
  0.000000000  0.000000000  0.000000000   1.0
  0.058803929  0.000000000  0.500000000   1.0
  0.000000000  0.250000000  0.000000000   2.0
  0.000000000  0.250000000  0.500000000   2.0
  0.000000000  0.500000000  0.000000000   1.0
  0.000000000  0.500000000  0.500000000   1.0
  0.250000000  0.000000000  0.000000000   2.0
  0.250000000  0.000000000  0.500000000   2.0
  0.250000000  0.250000000  0.000000000   2.0
  0.250000000  0.250000000  0.500000000   2.0
  0.250000000  0.500000000  0.000000000   2.0
  0.250000000  0.500000000  0.500000000   2.0
  0.250000000  0.750000000  0.000000000   2.0
  0.250000000  0.750000000  0.500000000   2.0
  0.500000000  0.000000000  0.000000000   1.0
  0.500000000  0.000000000  0.500000000   1.0
  0.500000000  0.250000000  0.000000000   2.0
  0.500000000  0.250000000  0.500000000   2.0
  0.500000000  0.500000000  0.000000000   1.0
  0.500000000  0.500000000  0.500000000   1.0
