&CONTROL
   calculation      = 'scf'
   restart_mode     = 'from_scratch'
   outdir           = './'
   wfcdir           = './'
   prefix           = 'pent'
   pseudo_dir       = '../../pseudos'
   forc_conv_thr    = 1.d-4
   tprnfor          = .TRUE.
/
&SYSTEM
   ecutwfc          = 90
   ntyp             = 2
   nat              = 72
   ibrav            = 0 !crystal axes provided
   nbnd             = 106
   occupations      = 'fixed'
/
&ELECTRONS
   conv_thr         = 1d-10
   electron_maxstep = 100 !iterations in an scf step
   diagonalization = 'david'
/
&IONS
/
&CELL
/

ATOMIC_SPECIES
C 12.011 C.upf
H 1.008 H.upf

K_POINTS automatic
4 4 2 0 0 0

CELL_PARAMETERS angstrom
     6.2660000000000000    0.0000000000000000    0.0000000000000000
     0.7203431964649767    7.7415586724707204    0.0000000000000000
     0.5876759734010517    3.3581219057453895   14.1243957115495764

ATOMIC_POSITIONS angstrom
  C  4.6987657773615741  3.1568194245243908  0.2151437825657148
  C  2.8755057773615738  7.9370104245243907  13.9074277825657155
  C  3.7192238093731840  3.1683608680593154  1.2232467159156890
  C  3.8549048093731839  7.9252238680593150  12.8991587159156893
  C  3.9053576297960988  2.4922726689755641  2.4518695668980919
  C  3.6683006297960983  8.6004056689755632  11.6701075668980927
  C  2.9349004787436765  2.5206108019703506  3.4539605826094530
  C  4.6384754787436764  8.5715438019703516  10.6677405826094542
  C  3.1227697729681063  1.8567280830793056  4.7096906183916332
  C  4.4498207729681063  9.2335070830793047  9.4110926183916312
  C  2.1568164985185061  1.9136433103669956  5.6836494792738197
  C  5.4156194985185060  9.1759003103669965  8.4369794792738180
  C  0.9415906417214313  2.6349938642361845  5.4642890421548209
  C  6.6316376417214311  8.4562038642361834  8.6573740421548209
  C  0.7160182002306080  3.2793260022164170  4.2748572878023205
  C  6.8578672002306087  7.8136250022164173  9.8475902878023192
  C  1.6952447336989782  3.2497670906946499  3.2301716629452906
  C  5.8785937336989775  7.8433790906946497  10.8921226629452921
  C  1.4960881152547831  3.9129795505452818  2.0192304507862584
  C  6.0782021152547827  7.1809865505452821  12.1034414507862582
  C  5.0983125622859307  7.1940928258643000  13.1235316091085661
  C  2.4759595622859307  3.8998058258643007  0.9990606091085660
  C  6.3722583469421243  10.6246989040331883  13.5500925276815245
  C  1.2033913469421242  0.4794989040331891  0.5762945276815252
  C  5.9679332427494387  7.1658604474013412  0.8158098955515191
  C  1.6076102427494390  3.9385654474013410  13.3105988955515198
  C  4.9838840186465232  6.5975700550948870  1.6582969383354214
  C  2.5913510186465234  4.5074680550948871  12.4682079383354196
  C  5.1741468224762919  6.4956238531409021  3.0369796222735101
  C  2.4003718224762922  4.6109228531409023  11.0897226222735092
  C  4.1872104834083999  5.9100960647481493  3.8939909729769280
  C  3.3866554834083988  5.1978950647481490  10.2330079729769299
  C  4.3987818666875818  5.8158499169392455  5.2470439118641350
  C  3.1741618666875810  5.2943919169392455  8.8802439118641345
  C  5.6093687965444241  6.3038913904633214  5.8307145416664179
  C  1.9633657965444240  4.8068543904633216  8.2965845416664177
  C  6.5863085224000883  6.8633987670367711  5.0448239202994278
  C  0.9871275224000884  4.2457067670367712  9.0821779202994293
  C  6.4114150983749223  6.9830603668282594  3.6280446895031480
  C  1.1628890983749220  4.1240073668282591  10.4986766895031476
  C  1.1219399819701903  7.5502858903813879  2.8083517229699719
  C  6.4529469819701903  3.5555308903813878  11.3182297229699724
  C  6.6333750361121799  3.4482514421662822  12.7172933102781585
  C  0.9420700361121802  7.6563904421662814  1.4091293102781579
  H  5.6335623978979834  2.6048021824797227  0.3821213218500412
  H  1.9408293978979825  8.4893451824797239  13.7405953218500407
  H  4.8405306360163580  1.9416580364491181  2.6208172938323786
  H  2.7330036360163570  9.1508820364491168  11.5011432938323797
  H  4.0542987118956990  1.3001933149893985  4.8742776528812888
  H  3.5179217118956991  9.7894063149893977  9.2460736528812895
  H  3.0376466795700692  9.1437287052333929  6.6404672259422055
  H  4.5342616795700694  1.9441697052333928  7.4793812259422046
  H  6.4536691378113442  2.6775727224355235  6.2584903609430640
  H  1.1196801378113439  8.4134977224355225  7.8633203609430646
  H  6.0511975954873458  3.8345286155753127  4.1067323485844360
  H  1.5233905954873457  7.2600076155753124  10.0166113485844352
  H  0.5619315162163683  4.4666248449250325  1.8538658260588401
  H  7.0127585162163681  6.6282168449250323  12.2691968260588400
  H  5.4401363720957958  10.2533120430658098  13.1035882839490565
  H  2.1356143720957959  0.8505180430658100  1.0227742839490559
  H  4.0509317987750499  6.2269781213133495  1.2126347835900588
  H  3.5245667987750497  4.8773771213133497  12.9137637835900598
  H  3.2594343668556203  5.5349653784823953  3.4445774928279942
  H  4.3147733668556203  5.5720333784823959  10.6823794928279945
  H  3.6380288140512698  5.3495133840438926  5.8827970469612261
  H  3.9343338140512700  5.7621183840438928  8.2448270469612268
  H  5.7633372327254779  6.2246325285314015  6.9133159495261722
  H  1.8085582327254777  4.8877235285314011  7.2141999495261731
  H  1.2576445920957096  7.2290647150751406  5.4829608652748485
  H  6.3157315920957098  3.8802007150751407  8.6438688652748485
  H  2.0523517145237258  7.9236808144955768  3.2559125112975140
  H  5.5224607145237261  3.1821058144955776  10.8707015112975167
