&CONTROL
  calculation = 'scf',
  prefix = 'anatase_111_3',
  outdir = './tmp',
  pseudo_dir = './',
/

&SYSTEM
  ibrav = 0,
  ecutwfc = 100,
  ecutrho = 400,
  nat = 36,
  ntyp = 2,
  occupations = 'fixed',
/

&ELECTRONS
  conv_thr = 1.0d-6,
  mixing_beta = 0.1,
/

&IONS
/

&CELL
/

ATOMIC_SPECIES
O 15.999 O.upf
Ti 47.867 Ti.upf

K_POINTS automatic
4 4 1  0 0 0

CELL_PARAMETERS angstrom
  5.3493189157 0.0000000000 0.0000000000
 -2.6746594578 9.9801023545 0.0000000000
  0.0000000000 -0.0000000000 37.6200431308

ATOMIC_POSITIONS angstrom
  Ti -0.0000000000 5.3484544800 16.2884090500
  Ti  1.3373297300 2.6742272400 15.6442045200
  Ti  0.0000000000 0.0000000000 15.0000000000
  Ti  1.3373297300 8.0226817100 16.9326135700
  O   1.3373297300 6.1037702700 17.4664069300
  O   0.0000000000 3.4295430300 16.8222024100
  O   1.3373297300 4.5931386800 15.1104111700
  O   2.6746594600 2.6357179500 17.0430247700
  O   1.3373297300 0.7553157900 16.1779978800
  O   2.6746594600 8.0611910000 15.5337933300
  O   1.3373297300 9.9415930700 16.3988202400
  O  -0.0000000000 7.2673658300 15.7546157200
  Ti  2.6746594600 6.0652610700 18.8652271500
  Ti  4.0119891900 3.3910338400 18.2210226200
  Ti  2.6746594600 0.7168066000 17.5768181000
  Ti -1.3373297300 8.7394883100 19.5094316700
  O  -1.3373297300 6.8205768700 20.0432250300
  O   2.6746594600 4.1463496300 19.3990205100
  O  -1.3373297300 5.3099452800 17.6872292700
  O   0.0000000000 3.3525245500 19.6198428700
  O   4.0119891900 1.4721223900 18.7548159800
  O   0.0000000000 8.7779976000 18.1106114300
  O   1.3373297300 0.6782973100 18.9756383400
  O   2.6746594600 7.9841724300 18.3314338200
  Ti -0.0000000000 6.7820676700 21.4420452500
  Ti  1.3373297300 4.1078404300 20.7978407200
  Ti  0.0000000000 1.4336132000 20.1536362000
  Ti  1.3373297300 9.4562949100 22.0862497700
  O   1.3373297300 7.5373834600 22.6200431300
  O   0.0000000000 4.8631562300 21.9758386100
  O   1.3373297300 6.0267518800 20.2640473700
  O   2.6746594600 4.0693311500 22.1966609700
  O   1.3373297300 2.1889289900 21.3316340800
  O   2.6746594600 9.4948042000 20.6874295300
  O   4.0119891900 1.3951039100 21.5524564400
  O  -0.0000000000 8.7009790300 20.9082519200
