C  H                                    
    1.000000000000000     
     6.2660000000000000    0.0000000000000000    0.0000000000000000
     0.7203431964649767    7.7415586724707204    0.0000000000000000
     0.5876759734010517    3.3581219057453895   14.1243957115495764
  C               H             
    44    28
Direct
     0.7021863485647870    0.4020226158143814    0.0153412162456164
     0.2978136514352130    0.5979773841856186    0.9846587837543836
     0.5428463835259763    0.3723800871049363    0.0867388913024882
     0.4571536164740237    0.6276199128950637    0.9132611086975118
     0.5788203940353256    0.2477984132251549    0.1738075840175952
     0.4211796059646744    0.7522015867748451    0.8261924159824048
     0.4207184164272633    0.2205990875064074    0.2447720474634139
     0.5792815835727367    0.7794009124935926    0.7552279525365861
     0.4567757564866000    0.0968813580739436    0.3338052004111844
     0.5432242435134000    0.9031186419260564    0.6661947995888156
     0.2988790195177131    0.0742238643888413    0.4026946061640189
     0.7011209804822869    0.9257761356111587    0.5973053938359811
     0.0946103789936714    0.1732315228813661    0.3869717547999727
     0.9053896210063286    0.8267684771186339    0.6130282452000273
     0.0525627497441690    0.2923954481308257    0.3027002398116423
     0.9474372502558310    0.7076045518691672    0.6972997601883577
     0.2125250803616296    0.3210717255587312    0.2288058856926511
     0.7874749196383704    0.6789282744412688    0.7711941143073489
     0.1746197688741375    0.4434180157559027    0.1430147403763229
     0.8253802311258625    0.5565819842440973    0.8569852596236771
     0.6658347299445282    0.5266864414008481    0.9292009374376207
     0.3341652700554647    0.4733135585991519    0.0707990625623793
     0.8171405256196493    0.9560070553768938    0.9594010483131683
     0.1828594743803507    0.0439929446231062    0.0405989516868317
     0.8434153534502968    0.9005862335068002    0.0577590624850117
     0.1565846465497032    0.0994137664931998    0.9422409375149883
     0.6922817925974698    0.8016981099044358    0.1175241246295542
     0.3077182074025302    0.1983018900955642    0.8824758753704458
     0.7197518004500125    0.7464396416578012    0.2150625573475011
     0.2802481995499875    0.2535603583421988    0.7849374426524918
     0.5681764004542629    0.6450950223351199    0.2758802271853327
     0.4318235995457371    0.3549049776648801    0.7241197728146602
     0.5993260223173920    0.5913454571289734    0.3715669305372913
     0.4006739776826151    0.4086545428710266    0.6284330694627087
     0.7838766933650660    0.6358452664980447    0.4127263318276491
     0.2161233066349340    0.3641547335019553    0.5872736681723509
     0.9337073245881697    0.7320761065337891    0.3570401371008387
     0.0662926754118303    0.2679238934662109    0.6429598628991613
     0.9082725040028592    0.7910835007225927    0.2567961925104427
     0.0917274959971408    0.2089164992774073    0.7432038074895573
     0.0580405542528126    0.8892330511105087    0.1986650826357774
     0.9419594457471874    0.1107669488894913    0.8013349173642226
     0.9678319210384814    0.0542376165885443    0.9003363629724603
     0.0321680789615186    0.9457623834114557    0.0996636370275397
     0.8589507843103803    0.3260215219861635    0.0271902549222673
     0.1410492156896126    0.6739784780138365    0.9728097450777327
     0.7355811110413910    0.1718539528350433    0.1858248251062946
     0.2644188889586090    0.8281460471649567    0.8141751748937054
     0.6131314886197288    0.0203791833899203    0.3456332827953474
     0.3868685113802783    0.9796208166100797    0.6543667172046526
     0.3291931007652238    0.9794337852057993    0.4704912166070372
     0.6708068992347762    0.0205662147941936    0.5295087833929628
     0.9712571959266256    0.1538858134320122    0.4430963562187245
     0.0287428040733744    0.8461141865679878    0.5569036437812755
     0.8961281728228201    0.3683932444927009    0.2906790907642502
     0.1038718271771799    0.6316067555072991    0.7093209092357498
     0.0178086892771461    0.5193562438625250    0.1312100912452649
     0.9821913107228539    0.4806437561374750    0.8687899087547351
     0.6754720740913527    0.9218084019463859    0.9278930973386039
     0.3245279259086473    0.0781915980536141    0.0721069026613961
     0.5503946112327256    0.7676554818563872    0.0860925614218928
     0.4496053887672744    0.2323445181436128    0.9139074385781072
     0.4267638388213726    0.6110421950462239    0.2442799180448247
     0.5732361611786274    0.3889578049537761    0.7557200819551753
     0.4826535027267838    0.5123330358722242    0.4166558003570273
     0.5173464972732162    0.4876669641277758    0.5833441996429727
     0.8065402001330071    0.5920992079113532    0.4892453933993508
     0.1934597998669929    0.4079007920886468    0.5107546066006492
     0.0764245867904734    0.7656807584426204    0.3879913750017820
     0.9235754132095266    0.2343192415573796    0.6120086249982180
     0.1995175457061080    0.9235321449423708    0.2302418938035586
     0.8004824542938920    0.0764678550576363    0.7697581061964414
 
  0.00000000E+00  0.00000000E+00  0.00000000E+00
  0.00000000E+00  0.00000000E+00  0.00000000E+00
  0.00000000E+00  0.00000000E+00  0.00000000E+00
  0.00000000E+00  0.00000000E+00  0.00000000E+00
  0.00000000E+00  0.00000000E+00  0.00000000E+00
  0.00000000E+00  0.00000000E+00  0.00000000E+00
  0.00000000E+00  0.00000000E+00  0.00000000E+00
  0.00000000E+00  0.00000000E+00  0.00000000E+00
  0.00000000E+00  0.00000000E+00  0.00000000E+00
  0.00000000E+00  0.00000000E+00  0.00000000E+00
  0.00000000E+00  0.00000000E+00  0.00000000E+00
  0.00000000E+00  0.00000000E+00  0.00000000E+00
  0.00000000E+00  0.00000000E+00  0.00000000E+00
  0.00000000E+00  0.00000000E+00  0.00000000E+00
  0.00000000E+00  0.00000000E+00  0.00000000E+00
  0.00000000E+00  0.00000000E+00  0.00000000E+00
  0.00000000E+00  0.00000000E+00  0.00000000E+00
  0.00000000E+00  0.00000000E+00  0.00000000E+00
  0.00000000E+00  0.00000000E+00  0.00000000E+00
  0.00000000E+00  0.00000000E+00  0.00000000E+00
  0.00000000E+00  0.00000000E+00  0.00000000E+00
  0.00000000E+00  0.00000000E+00  0.00000000E+00
  0.00000000E+00  0.00000000E+00  0.00000000E+00
  0.00000000E+00  0.00000000E+00  0.00000000E+00
  0.00000000E+00  0.00000000E+00  0.00000000E+00
  0.00000000E+00  0.00000000E+00  0.00000000E+00
  0.00000000E+00  0.00000000E+00  0.00000000E+00
  0.00000000E+00  0.00000000E+00  0.00000000E+00
  0.00000000E+00  0.00000000E+00  0.00000000E+00
  0.00000000E+00  0.00000000E+00  0.00000000E+00
  0.00000000E+00  0.00000000E+00  0.00000000E+00
  0.00000000E+00  0.00000000E+00  0.00000000E+00
  0.00000000E+00  0.00000000E+00  0.00000000E+00
  0.00000000E+00  0.00000000E+00  0.00000000E+00
  0.00000000E+00  0.00000000E+00  0.00000000E+00
  0.00000000E+00  0.00000000E+00  0.00000000E+00
  0.00000000E+00  0.00000000E+00  0.00000000E+00
  0.00000000E+00  0.00000000E+00  0.00000000E+00
  0.00000000E+00  0.00000000E+00  0.00000000E+00
  0.00000000E+00  0.00000000E+00  0.00000000E+00
  0.00000000E+00  0.00000000E+00  0.00000000E+00
  0.00000000E+00  0.00000000E+00  0.00000000E+00
  0.00000000E+00  0.00000000E+00  0.00000000E+00
  0.00000000E+00  0.00000000E+00  0.00000000E+00
  0.00000000E+00  0.00000000E+00  0.00000000E+00
  0.00000000E+00  0.00000000E+00  0.00000000E+00
  0.00000000E+00  0.00000000E+00  0.00000000E+00
  0.00000000E+00  0.00000000E+00  0.00000000E+00
  0.00000000E+00  0.00000000E+00  0.00000000E+00
  0.00000000E+00  0.00000000E+00  0.00000000E+00
  0.00000000E+00  0.00000000E+00  0.00000000E+00
  0.00000000E+00  0.00000000E+00  0.00000000E+00
  0.00000000E+00  0.00000000E+00  0.00000000E+00
  0.00000000E+00  0.00000000E+00  0.00000000E+00
  0.00000000E+00  0.00000000E+00  0.00000000E+00
  0.00000000E+00  0.00000000E+00  0.00000000E+00
  0.00000000E+00  0.00000000E+00  0.00000000E+00
  0.00000000E+00  0.00000000E+00  0.00000000E+00
  0.00000000E+00  0.00000000E+00  0.00000000E+00
  0.00000000E+00  0.00000000E+00  0.00000000E+00
  0.00000000E+00  0.00000000E+00  0.00000000E+00
  0.00000000E+00  0.00000000E+00  0.00000000E+00
  0.00000000E+00  0.00000000E+00  0.00000000E+00
  0.00000000E+00  0.00000000E+00  0.00000000E+00
  0.00000000E+00  0.00000000E+00  0.00000000E+00
  0.00000000E+00  0.00000000E+00  0.00000000E+00
  0.00000000E+00  0.00000000E+00  0.00000000E+00
  0.00000000E+00  0.00000000E+00  0.00000000E+00
  0.00000000E+00  0.00000000E+00  0.00000000E+00
  0.00000000E+00  0.00000000E+00  0.00000000E+00
  0.00000000E+00  0.00000000E+00  0.00000000E+00
  0.00000000E+00  0.00000000E+00  0.00000000E+00
