C  H 
 1.0000000000000000
     6.2660000000000000    0.0000000000000000    0.0000000000000000
     0.7203431964649767    7.7415586724707204    0.0000000000000000
     0.5876759734010517    3.3581219057453895   14.1243957115495764
 C   H  
  44  28
Cartesian
 31.7761976927296281 24.2369347622790947  2.5756190060369515
 31.8416547774014269 107.2234240881594758 195.9708661930703215
 26.2182305348406928 27.6674836246264277 16.7722974342777995
 37.3566324481784591 103.7021555182168697 181.6874922239518924
 27.5503305463140187 26.4074045319930590 34.0171200453355809
 35.8822196511386977 104.6498463729900834 164.2191651751552115
 22.0372733803874929 29.9024056286280597 48.1009987981136362
 41.3099918519889542 100.9708067050917748 149.9912740837019385
 23.3512023104690343 28.6573383590389632 65.6044010755685605
 39.7432218328248794 101.5529862535521772 132.0088570500849698
 17.8839227895262027 32.2630896276972408 79.3218088511924293
 45.1529679720496873 97.7302968659496827 118.2109402189057192
 10.7816173053148976 37.4036024757743633 76.4862617768136346
 52.5052158746516184 93.1916083448575847 121.5866606828771381
  9.2382964644401575 38.6886362547087614 59.8854090193708757
 54.2643308824784825 92.5050948796946670 138.5968949256230758
 14.7345331284014769 34.9696738017767856 45.0909504747445311
 48.7591226006437779 96.2611544636547620 153.3113811417307488
 13.3180707878019238 36.1742140111396608 28.0829899722817657
 50.3099316888245482 95.3376886540713997 170.5163769643695275
 44.7752277855190641 98.8505471628756140 184.9043038971967974
 18.8452893657957397 32.6321772272328658 13.6534808184797800
 55.8082320142321251 128.5033758923856340 191.8923185979149366
  8.4877008830238019  6.3961153649334133  8.6452544158579148
 43.2907710427960808 58.9962661470807035 12.0340465254740092
 20.9871113976959442 75.9709976099012465 188.5153909806967079
 37.1846790579890012 57.5171129828726109 23.9580596546045292
 27.0402023916676271 77.6374648601582322 176.6415194563421096
 39.0545734953347008 61.5793511980649555 43.4812221964302950
 25.0488679155629583 74.0309188879587907 157.2213520080435671
 32.9006241832739050 60.1432835288148198 55.6613094477370964
 31.0966028426667833 75.9169343096546640 145.1960963825266901
 34.8818117811802679 64.2880687741251080 74.8454395342871521
 28.9678592976142077 72.4519017980146458 126.1621933687661112
 43.1451088356891006 70.0969650852481294 83.0922969322932801
 20.6700065935866881 66.7882561088563591 117.9212117193764868
 49.2624363615874188 71.5432855002273840 71.9166054176354379
 14.6649880007978268 64.8361970396686900 128.9417891203300428
 47.4884408216848044 67.4113264017864964 51.8342532221030652
 16.5793835786470893 68.3502186303594499 148.8777843274985173
 14.3195464048321721 68.8674019535788915 40.2210651502451029
 49.8470919768630552 66.5189822295901649 160.4179492735282793
 51.7685383387324265 70.2136379993772834 180.1385619138932555
 12.4925878228786296 64.8169951455943192 20.4175705558445557
 37.4021340757304941 21.4726769091143339  5.4090874334293764
 26.3528174285886330 111.8875941772000431 194.0894667830101810
 33.2744250418849958 23.8642091221437660 37.0346531963779455
 30.4805264624345540 109.4960619641708490 162.4639010200619680
 29.2157742178463025 26.4797551952106147 68.8747914496136531
 34.5391772864735103 106.8805158911041389 130.6237627668267010
 29.5351550464547188 93.1394515494296797 93.8246999347061035
 34.2197964578646605 40.2208195368844912 105.6738542817341369
 46.0513859460158486 41.7830261801837537 88.4156486548895089
 17.7035655583035592 91.5772449061307867 111.0829055615504473
 43.0927857929940217 43.4978133099140578 58.0125407038811787
 20.6621657113255139 89.8624577764007029 141.4860135125590830
  7.8280730881917266 40.8251139849991418 26.1941477808087022
 55.9268784161277992 92.5351571013156899 173.3044064356316767
 49.1669647384654667 123.3606990133185235 185.0663719527980788
 14.5879867658540192  9.9995720729961750 14.4321822636420336
 30.5744266904518867 52.2572352760371786 17.1135901754393167
 33.1805248138676845 81.1030358102774471 182.3849640410007282
 26.4310047829141936 54.3839427308449359 48.6344849742634722
 37.3239467214052567 78.9763283554697608 150.8640692421770666
 30.1064883596467325 61.1170410831730635 83.0681587774606385
 33.6484631446726894 72.2432300031414911 116.4303954389791045
 44.6609016122600551 71.3498131679627932 97.6243736181921946
 19.0940498920595054 62.0104579183519888 101.8741805982481168
 16.3078587950613141 74.3354908733505084 77.4263201121230367
 47.4470927092581647 59.0247802129641599 122.0722341043175021
 20.4758911657325164 72.2480301512258052 45.9721314883494401
 43.2790603385871009 61.1122409350893108 153.5264227280910347
