&CONTROL
   calculation      = 'bands'
   restart_mode     = 'from_scratch'
   outdir           = './'
   wfcdir 	        = './wf_collect'
   prefix           = 'pent'
   pseudo_dir       = '../pseudos'
/
&SYSTEM
   ecutwfc          = 90
   ntyp             = 2
   nat              = 72
   ibrav            = 0 !crystal axes provided
   nbnd             = 684
   occupations      = 'fixed'
/
&ELECTRONS
   conv_thr         = 1d-10
   electron_maxstep = 1000 !iterations in an scf step
   diagonalization = 'david'
/
&IONS
/
&CELL
/

ATOMIC_SPECIES
C 12.011 C.upf
H 1.008 H.upf

CELL_PARAMETERS angstrom
     6.2660000000000000    0.0000000000000000    0.0000000000000000
     0.7203431964649767    7.7415586724707204    0.0000000000000000
     0.5876759734010517    3.3581219057453895   14.1243957115495764

ATOMIC_POSITIONS angstrom
   C     4.69889155    3.15389385    0.21423157
   C     2.87563155    7.93408485   13.90651557
   C     3.71927862    3.16531274    1.22225143
   C     3.85495962    7.92217574   12.89816343
   C     3.90517726    2.48877134    2.45066013
   C     3.66812026    8.59690434   11.66889813
   C     2.93457896    2.51684760    3.45261317
   C     4.63815396    8.56778060   10.66639317
   C     3.12205555    1.85200517    4.70788424
   C     4.44910655    9.22878417    9.40928624
   C     2.15602500    1.90857462    5.68176596
   C     5.41482800    9.17083162    8.43509596
   C     0.94119528    2.63075273    5.46292308
   C     6.63124228    8.45196273    8.65600808
   C     0.71595140    3.27596100    4.27388358
   C     6.85780040    7.81026000    9.84661658
   C     1.69515447    3.24650018    3.22912133
   C     5.87850347    7.84011218   10.89107233
   C     1.49622323    3.91012210    2.01836890
   C     6.07833723    7.17812910   12.10257990
   C     5.09843912    7.19120165   13.12263022
   C     2.47608612    3.89691465    0.99815922
   C     6.37307369   10.62695781   13.55108806
   C     1.20420669    0.48175781    0.57729006
   C     5.96869549    7.16823289    0.81681679
   C     1.60837249    3.94093789   13.31160579
   C     4.98449204    6.60024911    1.65935188
   C     2.59195904    4.51014711   12.46926288
   C     5.17439664    6.49905671    3.03813324
   C     2.40062164    4.61435571   11.09087624
   C     4.18713397    5.91425113    3.89529295
   C     3.38657897    5.20205013   10.23430995
   C     4.39824373    5.82113083    5.24848982
   C     3.17362373    5.29967283    8.88168982
   C     5.60872659    6.30942378    5.83216608
   C     1.96272359    4.81238678    8.29803608
   C     6.58601704    6.86811153    5.04612684
   C     0.98683604    4.25041953    9.08348084
   C     6.41155720    6.98675373    3.62920738
   C     1.16303120    4.12770073   10.49983938
   C     1.12237396    7.55335378    2.80944445
   C     6.45338096    3.55859878   11.31932245
   C     6.63408807    3.45073188   12.71830662
   C     0.94278307    7.65887088    1.41014262
   H     5.63374880    2.60203536    0.38128164
   H     1.94101580    8.48657836   13.73975564
   H     4.84028827    1.93808807    2.61959959
   H     2.73276127    9.14731207   11.49992559
   H     4.05339942    1.29515263    4.87225531
   H     3.51702242    9.78436563    9.24405131
   H     3.03659136    9.13783741    6.63819345
   H     4.53320636    1.93827841    7.47710745
   H     6.45333428    2.67326744    6.25719772
   H     1.11934528    8.40919244    7.86202772
   H     6.05148219    3.83195623    4.10620670
   H     1.52367519    7.25743523   10.01608570
   H     0.56226703    4.46420569    1.85319965
   H     7.01309403    6.62579769   12.26853065
   H     5.44100174   10.25538709   13.10457157
   H     2.13647974    0.85259309    1.02375757
   H     4.05167160    6.22931524    1.21363657
   H     3.52530660    4.87971424   12.91476557
   H     3.25952873    5.53862476    3.44585799
   H     4.31486773    5.57569276   10.68365999
   H     3.63720063    5.35548877    5.88441109
   H     3.93350563    5.76809377    8.24644109
   H     5.76227547    6.23097006    6.91487590
   H     1.80749647    4.89406106    7.21575990
   H     1.25732318    7.23385743    5.48417773
   H     6.31541018    3.88499343    8.64508573
   H     2.05274843    7.92673363    3.25702202
   H     5.52285743    3.18515863   10.87181102

K_POINTS crystal
   20
  0.000000000  0.000000000  0.000000000   1.0
  0.058803929  0.000000000  0.500000000   1.0
  0.000000000  0.250000000  0.000000000   2.0
  0.000000000  0.250000000  0.500000000   2.0
  0.000000000  0.500000000  0.000000000   1.0
  0.000000000  0.500000000  0.500000000   1.0
  0.250000000  0.000000000  0.000000000   2.0
  0.250000000  0.000000000  0.500000000   2.0
  0.250000000  0.250000000  0.000000000   2.0
  0.250000000  0.250000000  0.500000000   2.0
  0.250000000  0.500000000  0.000000000   2.0
  0.250000000  0.500000000  0.500000000   2.0
  0.250000000  0.750000000  0.000000000   2.0
  0.250000000  0.750000000  0.500000000   2.0
  0.500000000  0.000000000  0.000000000   1.0
  0.500000000  0.000000000  0.500000000   1.0
  0.500000000  0.250000000  0.000000000   2.0
  0.500000000  0.250000000  0.500000000   2.0
  0.500000000  0.500000000  0.000000000   1.0
  0.500000000  0.500000000  0.500000000   1.0
