&CONTROL
   calculation      = 'bands'
   restart_mode     = 'from_scratch'
   outdir           = './'
   wfcdir 	        = './wf_collect'
   prefix           = 'pent'
   pseudo_dir       = '../pseudos'
/
&SYSTEM
   ecutwfc          = 90
   ntyp             = 2
   nat              = 72
   ibrav            = 0 !crystal axes provided
   nbnd		        = 684
   occupations      = 'fixed'
/
&ELECTRONS
   conv_thr         = 1d-10
   electron_maxstep = 1000 !iterations in an scf step
   diagonalization = 'cg'
/
&IONS
/
&CELL
/

ATOMIC_SPECIES
C 12.011 C.upf
H 1.008 H.upf

CELL_PARAMETERS angstrom
     6.2660000000000000    0.0000000000000000    0.0000000000000000
     0.7203431964649767    7.7415586724707204    0.0000000000000000
     0.5876759734010517    3.3581219057453895   14.1243957115495764

ATOMIC_POSITIONS angstrom
  C  4.7032866222716345  3.0516558492139652  0.1823525097028298
  C  2.8800265475944018  7.8318467290021490 13.8746372018467383
  C  3.7211942557919486  3.0587915570750606  1.1874700891141856
  C  3.8568749140740892  7.8156550211410671 12.8633816224353765
  C  3.8988741888187692  2.3664125329820145  2.4083947193237893
  C  3.6618169810472470  8.4745460452340993 11.6266329922258205
  C  2.9233427270034396  2.3853379507639314  3.4055261393435221
  C  4.6269184428625980  8.4362706274521884 10.6193055722060681
  C  3.0970957200702793  1.6869567310080755  4.6447580778215931
  C  4.4241474497957496  9.0637358472080223  9.3461596337279609
  C  2.1283649230880304  1.7314428750134143  5.6159435398946416
  C  5.3871682467779998  8.9936997032026902  8.3692741716549435
  C  0.9273794196986471  2.4825414342892369  5.4151882557545807
  C  6.6174257501673894  8.3037511439268776  8.6082734557950111
  C  0.7136174159962819  3.1583667788569501  4.2398563621665115
  C  6.8554657538697485  7.6926657993591245  9.8125893493830549
  C  1.6919998397044054  3.1323344388915029  3.1924162559304023
  C  5.8753493301616242  7.7259461393246180 10.8543674556191743
  C  1.5009446057784275  3.8102649985901467  1.9882613419927189
  C  6.0830585640876063  7.0782715796259872 12.0724723695568503
  C  5.1028618339786833  7.0901659778259809 13.0911302453810308
  C  2.4805093358872927  3.7958786003901182  0.9666594661685436
  C  6.4015666706593617 10.7058984487588944 13.5858781159043698
  C  1.2327004992066641  0.5606981294572032  0.6120795956451894
  C  5.9953333293179840  7.2511407670251211  0.8520043456183913
  C  1.6350098405480562  4.0238458111909798 13.3467933659311804
  C  5.0057400136666113  6.6938722635135086  1.6962183829934701
  C  2.6132071561994161  4.6037703147025946 12.5061293285560957
  C  5.1831273514693841  6.6190219101147241  3.0784483162614538
  C  2.4093518183966367  4.7343206681013674 11.1311913952880115
  C  4.1844603276251613  6.0594545185778887  3.9407922706542839
  C  3.3839048422408693  5.3472540596381899 10.2798094408951748
  C  4.3794375355419142  6.0056791356373642  5.2990188793058044
  C  3.1548176343241634  5.4842214425787468  8.9322188322437590
  C  5.5862840281124742  6.5027597349713284  5.8828921696344407
  C  1.9402811417535490  5.0057228432447802  8.3487615419151577
  C  6.5758310511238003  7.0328052072009148  5.0916589202346501
  C  0.9766501187422315  4.4151133710151944  9.1290127913149437
  C  6.4165225304222222  7.1158229482571285  3.6698386451830980
  C  1.1679966394438062  4.2567696299589715 10.5404710663664360
  C  1.1375401483302066  7.6605646074554459  2.8476308630574665
  C  6.4685470215358274  3.6658099707606477 11.3575088484921043
  C  6.6590061496541599  3.5374139583467934 12.7537181478562793
  C  0.9677010202118553  7.7455526198693150  1.4455535636932788
  H  5.6333757939797309  2.6075690043331181  0.3829606266982695
  H  1.9406433758862449  8.4921115738829762 13.7414350848512701
  H  4.8407734624113630  1.9452281102820066  2.6220345247120593
  H  2.7332457074546754  9.1544524679341066 11.5023611868375060
  H  4.0551984435774546  1.3052339485154640  4.8763000454096908
  H  3.5188207262886220  9.7944466297006549  9.2480956661399034
  H  3.0387024474452637  9.1496197456129202  6.6427408188504131
  H  4.5353167224207525  1.9500608326031286  7.4816548926991731
  H  6.4540041109885502  2.6818775745968857  6.2597827518094578
  H  1.1200150588774678  8.4178030036192180  7.8646129597401098
  H  6.0509127825474565  3.8371006008775748  4.1072582423079576
  H  1.5231063873185771  7.2625799773385475 10.0171374692416322
  H  0.5615964543426597  4.4690442809747974  1.8545322798758492
  H  7.0124227155233712  6.6306362972413311 12.2698634316737483
  H  5.4392706262502601 10.2512373677459756 13.1026045809144627
  H  2.1347485436157667  0.8484432104701436  1.0217911306351166
  H  4.0501916901829658  6.2246408656770047  1.2116334408165486
  H  3.5238274796830766  4.8750397125391087 12.9127622707330243
  H  3.2593397938947284  5.5313063565612417  3.4432966880483846
  H  4.3146793759712905  5.5683742216548637 10.6810990235012255
  H  3.6388568848120473  5.3435377416467649  5.8811832006048546
  H  3.9351622850539720  5.7561428365693468  8.2432125109446961
  H  5.7643987225728779  6.2182948850101631  6.9117557743277001
  H  1.8096204472931599  4.8813856932059592  7.2126399372218932
  H  1.2579658999520205  7.2242721328374326  5.4817439056037784
  H  6.3160532699140051  3.8754084453786692  8.6426518059458317
  H  2.0519551827794889  7.9206276251181276  3.2548034214842785
  H  5.5220639870865513  3.1790529530980352 10.8695922900653237
