&CONTROL
   calculation      = 'scf'
   restart_mode     = 'from_scratch'
   outdir           = './'
   wfcdir           = './'
   prefix           = 'pent'
   pseudo_dir       = '../../pseudos'
   forc_conv_thr    = 1.d-4
   tprnfor          = .TRUE.
/
&SYSTEM
   ecutwfc          = 90
   ntyp             = 2
   nat              = 72
   ibrav            = 0 !crystal axes provided
   nbnd             = 106
   occupations      = 'fixed'
/
&ELECTRONS
   conv_thr         = 1d-10
   electron_maxstep = 100 !iterations in an scf step
   diagonalization = 'david'
/
&IONS
/
&CELL
/

ATOMIC_SPECIES
C 12.011 C.upf
H 1.008 H.upf

K_POINTS automatic
4 4 2 0 0 0

CELL_PARAMETERS angstrom
     6.2660000000000000    0.0000000000000000    0.0000000000000000
     0.7203431964649767    7.7415586724707204    0.0000000000000000
     0.5876759734010517    3.3581219057453895   14.1243957115495764

ATOMIC_POSITIONS angstrom
  C  4.6988915547231480  3.1538938490487820  0.2142315651314296
  C  2.8756315547231481  7.9340848490487819  13.9065155651314303
  C  3.7192786187463680  3.1653127361186306  1.2222514318313780
  C  3.8549596187463679  7.9221757361186302  12.8981634318313780
  C  3.9051772595921981  2.4887713379511278  2.4506601337961840
  C  3.6681202595921980  8.5969043379511270  11.6688981337961835
  C  2.9345789574873526  2.5168476039407008  3.4526131652189078
  C  4.6381539574873534  8.5677806039407010  10.6663931652189081
  C  3.1220555459362123  1.8520051661586117  4.7078842367832676
  C  4.4491065459362131  9.2287841661586114  9.4092862367832684
  C  2.1560249970370120  1.9085746207339909  5.6817659585476390
  C  5.4148279970370119  9.1708316207339902  8.4350959585476382
  C  0.9411952834428624  2.6307527284723689  5.4629230843096419
  C  6.6312422834428624  8.4519627284723686  8.6560080843096419
  C  0.7159514004612161  3.2759610044328360  4.2738835756046401
  C  6.8578004004612163  7.8102600044328350  9.8466165756046404
  C  1.6951544673979562  3.2465001813892997  3.2291213258905809
  C  5.8785034673979562  7.8401121813892996  10.8910723258905797
  C  1.4962232305095662  3.9101221010905638  2.0183689015725168
  C  6.0783372305095655  7.1781291010905637  12.1025799015725166
  C  5.0984391245718612  7.1912016517286013  13.1226302182171324
  C  2.4760861245718613  3.8969146517286011  0.9981592182171320
  C  6.3730736938842485  10.6269578080663756  13.5510880553630493
  C  1.2042066938842482  0.4817578080663782  0.5772900553630503
  C  5.9686954854988770  7.1682328948026823  0.8168167911030380
  C  1.6083724854988779  3.9409378948026821  13.3116057911030357
  C  4.9844920372930472  6.6002491101897736  1.6593518766708424
  C  2.5919590372930470  4.5101471101897737  12.4692628766708395
  C  5.1743966449525836  6.4990567062818041  3.0381332445470202
  C  2.4006216449525830  4.6143557062818044  11.0908762445470206
  C  4.1871339668167984  5.9142511294962974  3.8952929459538570
  C  3.3865789668167983  5.2020501294962971  10.2343099459538553
  C  4.3982437333751623  5.8211308338784908  5.2484898237282707
  C  3.1736237333751620  5.2996728338784909  8.8816898237282693
  C  5.6087265930888472  6.3094237809266431  5.8321660833328357
  C  1.9627235930888480  4.8123867809266434  8.2980360833328355
  C  6.5860170448001769  6.8681115340735426  5.0461268405988564
  C  0.9868360448001772  4.2504195340735427  9.0834808405988561
  C  6.4115571967498441  6.9867537336565180  3.6292073790062962
  C  1.1630311967498439  4.1277007336565177  10.4998393790062963
  C  1.1223739639403807  7.5533537807627757  2.8094444459399441
  C  6.4533809639403810  3.5585987807627761  11.3193224459399442
  C  6.6340880722243600  3.4507318843325638  12.7183066205563158
  C  0.9427830722243604  7.6588708843325639  1.4101426205563166
  H  5.6337487957959649  2.6020353649594457  0.3812816437000824
  H  1.9410157957959648  8.4865783649594473  13.7397556437000823
  H  4.8402882720327156  1.9380880728982359  2.6195995876647573
  H  2.7327612720327155  9.1473120728982344  11.4999255876647553
  H  4.0533994237913982  1.2951526299787968  4.8722553057625770
  H  3.5170224237913978  9.7843656299787956  9.2440513057625804
  H  3.0365913591401390  9.1378374104667834  6.6381934518844110
  H  4.5332063591401388  1.9382784104667850  7.4771074518844109
  H  6.4533342756226881  2.6732674448710472  6.2571977218861283
  H  1.1193452756226878  8.4091924448710458  7.8620277218861290
  H  6.0514821909746912  3.8319562311506248  4.1062066971688731
  H  1.5236751909746913  7.2574352311506249  10.0160856971688723
  H  0.5622670324327366  4.4642056898500648  1.8531996521176799
  H  7.0130940324327371  6.6257976898500646  12.2685306521176791
  H  5.4410017441915919  10.2553870861316199  13.1045715678981125
  H  2.1364797441915919  0.8525930861316201  1.0237575678981119
  H  4.0516715975500999  6.2293152426266989  1.2136365671801177
  H  3.5253065975501001  4.8797142426266991  12.9147655671801207
  H  3.2595287337112402  5.5386247569647900  3.4458579856559890
  H  4.3148677337112407  5.5756927569647914  10.6836599856559875
  H  3.6372006281025402  5.3554887680877856  5.8844110939224521
  H  3.9335056281025409  5.7680937680877857  8.2464410939224528
  H  5.7622754654509558  6.2309700570628044  6.9148758990523449
  H  1.8074964654509555  4.8940610570628031  7.2157598990523457
  H  1.2573231841914190  7.2338574301502812  5.4841777305496970
  H  6.3154101841914194  3.8849934301502809  8.6450857305496971
  H  2.0527484290474520  7.9267336289911547  3.2570220225950286
  H  5.5228574290474519  3.1851586289911547  10.8718110225950273
